\Problem name: compact

Minimize
OBJROW: C
Subject To
ord(0,1):  - x(0,1) + x(0,2) >= 7
ord(0,2):  x(0,0) - x(0,2) >= 7
ord(1,1):  x(1,0) - x(1,1) >= 4
ord(1,2):  - x(1,0) + x(1,2) >= 3
ord(2,1):  - x(2,1) + x(2,2) >= 7
ord(2,2):  x(2,0) - x(2,2) >= 6
triangle2(0,1,0):  y(0,1,0) + y(1,0,0) = 1
triangle2(0,1,1):  y(0,1,1) + y(1,0,1) = 1
triangle2(0,1,2):  y(0,1,2) + y(1,0,2) = 1
triangle2(0,2,0):  y(0,2,0) + y(2,0,0) = 1
triangle2(0,2,1):  y(0,2,1) + y(2,0,1) = 1
triangle2(0,2,2):  y(0,2,2) + y(2,0,2) = 1
triangle2(1,2,0):  y(1,2,0) + y(2,1,0) = 1
triangle2(1,2,1):  y(1,2,1) + y(2,1,1) = 1
triangle2(1,2,2):  y(1,2,2) + y(2,1,2) = 1
MCLinV(0,1,0):  - x(0,0) + v(0,1,0)p - v(0,1,0)n + x(1,0) = -3
MCLinV(1,0,0):  x(0,0) + v(1,0,0)p - v(1,0,0)n - x(1,0) = -1
MCLin1(0,1,0):  u(0,1,0)p - u(0,1,0)n >= 0
MCLin2(0,1,0):  23 y(1,0,0) + u(0,1,0)p - u(0,1,0)n >= 0
MCLin3(0,1,0):  -36 y(1,0,0) - v(0,1,0)p + v(0,1,0)n + u(0,1,0)p - u(0,1,0)n >= -36
MCLin4(0,1,0):  -36 y(1,0,0) + u(0,1,0)p - u(0,1,0)n <= 0
MCLin5(0,1,0):  23 y(1,0,0) - v(0,1,0)p + v(0,1,0)n + u(0,1,0)p - u(0,1,0)n <= 23
MCLin6(1,0,0):  u(1,0,0)p - u(1,0,0)n >= 0
MCLin7(1,0,0):  40 y(0,1,0) + u(1,0,0)p - u(1,0,0)n >= 0
MCLin8(1,0,0):  -19 y(0,1,0) - v(1,0,0)p + v(1,0,0)n + u(1,0,0)p - u(1,0,0)n >= -19
MCLin9(1,0,0):  -19 y(0,1,0) + u(1,0,0)p - u(1,0,0)n <= 0
MCLin10(1,0,0):  40 y(0,1,0) - v(1,0,0)p + v(1,0,0)n + u(1,0,0)p - u(1,0,0)n <= 40
MCLinV(0,1,1):  - x(0,1) + v(0,1,1)p - v(0,1,1)n + x(1,1) = -4
MCLinV(1,0,1):  x(0,1) + v(1,0,1)p - v(1,0,1)n - x(1,1) = -7
MCLin1(0,1,1):  u(0,1,1)p - u(0,1,1)n >= 0
MCLin2(0,1,1):  34 y(1,0,1) + u(0,1,1)p - u(0,1,1)n >= 0
MCLin3(0,1,1):  -25 y(1,0,1) - v(0,1,1)p + v(0,1,1)n + u(0,1,1)p - u(0,1,1)n >= -25
MCLin4(0,1,1):  -25 y(1,0,1) + u(0,1,1)p - u(0,1,1)n <= 0
MCLin5(0,1,1):  34 y(1,0,1) - v(0,1,1)p + v(0,1,1)n + u(0,1,1)p - u(0,1,1)n <= 34
MCLin6(1,0,1):  u(1,0,1)p - u(1,0,1)n >= 0
MCLin7(1,0,1):  36 y(0,1,1) + u(1,0,1)p - u(1,0,1)n >= 0
MCLin8(1,0,1):  -23 y(0,1,1) - v(1,0,1)p + v(1,0,1)n + u(1,0,1)p - u(1,0,1)n >= -23
MCLin9(1,0,1):  -23 y(0,1,1) + u(1,0,1)p - u(1,0,1)n <= 0
MCLin10(1,0,1):  36 y(0,1,1) - v(1,0,1)p + v(1,0,1)n + u(1,0,1)p - u(1,0,1)n <= 36
MCLinV(0,1,2):  - x(0,2) + v(0,1,2)p - v(0,1,2)n + x(1,2) = -7
MCLinV(1,0,2):  x(0,2) + v(1,0,2)p - v(1,0,2)n - x(1,2) = -7
MCLin1(0,1,2):  u(0,1,2)p - u(0,1,2)n >= 0
MCLin2(0,1,2):  37 y(1,0,2) + u(0,1,2)p - u(0,1,2)n >= 0
MCLin3(0,1,2):  -22 y(1,0,2) - v(0,1,2)p + v(0,1,2)n + u(0,1,2)p - u(0,1,2)n >= -22
MCLin4(0,1,2):  -22 y(1,0,2) + u(0,1,2)p - u(0,1,2)n <= 0
MCLin5(0,1,2):  37 y(1,0,2) - v(0,1,2)p + v(0,1,2)n + u(0,1,2)p - u(0,1,2)n <= 37
MCLin6(1,0,2):  u(1,0,2)p - u(1,0,2)n >= 0
MCLin7(1,0,2):  36 y(0,1,2) + u(1,0,2)p - u(1,0,2)n >= 0
MCLin8(1,0,2):  -23 y(0,1,2) - v(1,0,2)p + v(1,0,2)n + u(1,0,2)p - u(1,0,2)n >= -23
MCLin9(1,0,2):  -23 y(0,1,2) + u(1,0,2)p - u(1,0,2)n <= 0
MCLin10(1,0,2):  36 y(0,1,2) - v(1,0,2)p + v(1,0,2)n + u(1,0,2)p - u(1,0,2)n <= 36
MCLinV(0,2,0):  - x(0,0) + v(0,2,0)p - v(0,2,0)n + x(2,0) = -2
MCLinV(2,0,0):  x(0,0) + v(2,0,0)p - v(2,0,0)n - x(2,0) = -1
MCLin1(0,2,0):  u(0,2,0)p - u(0,2,0)n >= 0
MCLin2(0,2,0):  30 y(2,0,0) + u(0,2,0)p - u(0,2,0)n >= 0
MCLin3(0,2,0):  -28 y(2,0,0) - v(0,2,0)p + v(0,2,0)n + u(0,2,0)p - u(0,2,0)n >= -28
MCLin4(0,2,0):  -28 y(2,0,0) + u(0,2,0)p - u(0,2,0)n <= 0
MCLin5(0,2,0):  30 y(2,0,0) - v(0,2,0)p + v(0,2,0)n + u(0,2,0)p - u(0,2,0)n <= 30
MCLin6(2,0,0):  u(2,0,0)p - u(2,0,0)n >= 0
MCLin7(2,0,0):  31 y(0,2,0) + u(2,0,0)p - u(2,0,0)n >= 0
MCLin8(2,0,0):  -27 y(0,2,0) - v(2,0,0)p + v(2,0,0)n + u(2,0,0)p - u(2,0,0)n >= -27
MCLin9(2,0,0):  -27 y(0,2,0) + u(2,0,0)p - u(2,0,0)n <= 0
MCLin10(2,0,0):  31 y(0,2,0) - v(2,0,0)p + v(2,0,0)n + u(2,0,0)p - u(2,0,0)n <= 31
MCLinV(0,2,1):  - x(0,1) + v(0,2,1)p - v(0,2,1)n + x(2,1) = -7
MCLinV(2,0,1):  x(0,1) + v(2,0,1)p - v(2,0,1)n - x(2,1) = -7
MCLin1(0,2,1):  u(0,2,1)p - u(0,2,1)n >= 0
MCLin2(0,2,1):  36 y(2,0,1) + u(0,2,1)p - u(0,2,1)n >= 0
MCLin3(0,2,1):  -22 y(2,0,1) - v(0,2,1)p + v(0,2,1)n + u(0,2,1)p - u(0,2,1)n >= -22
MCLin4(0,2,1):  -22 y(2,0,1) + u(0,2,1)p - u(0,2,1)n <= 0
MCLin5(0,2,1):  36 y(2,0,1) - v(0,2,1)p + v(0,2,1)n + u(0,2,1)p - u(0,2,1)n <= 36
MCLin6(2,0,1):  u(2,0,1)p - u(2,0,1)n >= 0
MCLin7(2,0,1):  36 y(0,2,1) + u(2,0,1)p - u(2,0,1)n >= 0
MCLin8(2,0,1):  -22 y(0,2,1) - v(2,0,1)p + v(2,0,1)n + u(2,0,1)p - u(2,0,1)n >= -22
MCLin9(2,0,1):  -22 y(0,2,1) + u(2,0,1)p - u(2,0,1)n <= 0
MCLin10(2,0,1):  36 y(0,2,1) - v(2,0,1)p + v(2,0,1)n + u(2,0,1)p - u(2,0,1)n <= 36
MCLinV(0,2,2):  - x(0,2) + v(0,2,2)p - v(0,2,2)n + x(2,2) = -6
MCLinV(2,0,2):  x(0,2) + v(2,0,2)p - v(2,0,2)n - x(2,2) = -7
MCLin1(0,2,2):  u(0,2,2)p - u(0,2,2)n >= 0
MCLin2(0,2,2):  35 y(2,0,2) + u(0,2,2)p - u(0,2,2)n >= 0
MCLin3(0,2,2):  -23 y(2,0,2) - v(0,2,2)p + v(0,2,2)n + u(0,2,2)p - u(0,2,2)n >= -23
MCLin4(0,2,2):  -23 y(2,0,2) + u(0,2,2)p - u(0,2,2)n <= 0
MCLin5(0,2,2):  35 y(2,0,2) - v(0,2,2)p + v(0,2,2)n + u(0,2,2)p - u(0,2,2)n <= 35
MCLin6(2,0,2):  u(2,0,2)p - u(2,0,2)n >= 0
MCLin7(2,0,2):  36 y(0,2,2) + u(2,0,2)p - u(2,0,2)n >= 0
MCLin8(2,0,2):  -22 y(0,2,2) - v(2,0,2)p + v(2,0,2)n + u(2,0,2)p - u(2,0,2)n >= -22
MCLin9(2,0,2):  -22 y(0,2,2) + u(2,0,2)p - u(2,0,2)n <= 0
MCLin10(2,0,2):  36 y(0,2,2) - v(2,0,2)p + v(2,0,2)n + u(2,0,2)p - u(2,0,2)n <= 36
MCLinV(1,2,0):  - x(1,0) + v(1,2,0)p - v(1,2,0)n + x(2,0) = -2
MCLinV(2,1,0):  x(1,0) + v(2,1,0)p - v(2,1,0)n - x(2,0) = -3
MCLin1(1,2,0):  u(1,2,0)p - u(1,2,0)n >= 0
MCLin2(1,2,0):  40 y(2,1,0) + u(1,2,0)p - u(1,2,0)n >= 0
MCLin3(1,2,0):  -19 y(2,1,0) - v(1,2,0)p + v(1,2,0)n + u(1,2,0)p - u(1,2,0)n >= -19
MCLin4(1,2,0):  -19 y(2,1,0) + u(1,2,0)p - u(1,2,0)n <= 0
MCLin5(1,2,0):  40 y(2,1,0) - v(1,2,0)p + v(1,2,0)n + u(1,2,0)p - u(1,2,0)n <= 40
MCLin6(2,1,0):  u(2,1,0)p - u(2,1,0)n >= 0
MCLin7(2,1,0):  24 y(1,2,0) + u(2,1,0)p - u(2,1,0)n >= 0
MCLin8(2,1,0):  -35 y(1,2,0) - v(2,1,0)p + v(2,1,0)n + u(2,1,0)p - u(2,1,0)n >= -35
MCLin9(2,1,0):  -35 y(1,2,0) + u(2,1,0)p - u(2,1,0)n <= 0
MCLin10(2,1,0):  24 y(1,2,0) - v(2,1,0)p + v(2,1,0)n + u(2,1,0)p - u(2,1,0)n <= 24
MCLinV(1,2,1):  - x(1,1) + v(1,2,1)p - v(1,2,1)n + x(2,1) = -7
MCLinV(2,1,1):  x(1,1) + v(2,1,1)p - v(2,1,1)n - x(2,1) = -4
MCLin1(1,2,1):  u(1,2,1)p - u(1,2,1)n >= 0
MCLin2(1,2,1):  36 y(2,1,1) + u(1,2,1)p - u(1,2,1)n >= 0
MCLin3(1,2,1):  -23 y(2,1,1) - v(1,2,1)p + v(1,2,1)n + u(1,2,1)p - u(1,2,1)n >= -23
MCLin4(1,2,1):  -23 y(2,1,1) + u(1,2,1)p - u(1,2,1)n <= 0
MCLin5(1,2,1):  36 y(2,1,1) - v(1,2,1)p + v(1,2,1)n + u(1,2,1)p - u(1,2,1)n <= 36
MCLin6(2,1,1):  u(2,1,1)p - u(2,1,1)n >= 0
MCLin7(2,1,1):  34 y(1,2,1) + u(2,1,1)p - u(2,1,1)n >= 0
MCLin8(2,1,1):  -25 y(1,2,1) - v(2,1,1)p + v(2,1,1)n + u(2,1,1)p - u(2,1,1)n >= -25
MCLin9(2,1,1):  -25 y(1,2,1) + u(2,1,1)p - u(2,1,1)n <= 0
MCLin10(2,1,1):  34 y(1,2,1) - v(2,1,1)p + v(2,1,1)n + u(2,1,1)p - u(2,1,1)n <= 34
MCLinV(1,2,2):  - x(1,2) + v(1,2,2)p - v(1,2,2)n + x(2,2) = -6
MCLinV(2,1,2):  x(1,2) + v(2,1,2)p - v(2,1,2)n - x(2,2) = -7
MCLin1(1,2,2):  u(1,2,2)p - u(1,2,2)n >= 0
MCLin2(1,2,2):  35 y(2,1,2) + u(1,2,2)p - u(1,2,2)n >= 0
MCLin3(1,2,2):  -24 y(2,1,2) - v(1,2,2)p + v(1,2,2)n + u(1,2,2)p - u(1,2,2)n >= -24
MCLin4(1,2,2):  -24 y(2,1,2) + u(1,2,2)p - u(1,2,2)n <= 0
MCLin5(1,2,2):  35 y(2,1,2) - v(1,2,2)p + v(1,2,2)n + u(1,2,2)p - u(1,2,2)n <= 35
MCLin6(2,1,2):  u(2,1,2)p - u(2,1,2)n >= 0
MCLin7(2,1,2):  37 y(1,2,2) + u(2,1,2)p - u(2,1,2)n >= 0
MCLin8(2,1,2):  -22 y(1,2,2) - v(2,1,2)p + v(2,1,2)n + u(2,1,2)p - u(2,1,2)n >= -22
MCLin9(2,1,2):  -22 y(1,2,2) + u(2,1,2)p - u(2,1,2)n <= 0
MCLin10(2,1,2):  37 y(1,2,2) - v(2,1,2)p + v(2,1,2)n + u(2,1,2)p - u(2,1,2)n <= 37
makespan(0):  C - x(0,0) >= 1
makespan(1):  C - x(1,2) >= 7
makespan(2):  C - x(2,0) >= 2
cut_clique_1(0,0):  0.00732 x(0,0) + 0.06852 x(2,0) >= 1
cut_clique_1(1,0):  0.04234 x(0,0) + 0.00651 x(1,0) + 0.02650 x(2,0) >= 1
cut_clique_1(2,0):  0.04361 x(0,0) + 0.00599 x(1,0) + 0.02594 x(2,0) >= 1
cut_clique_1(3,0):  0.04361 x(0,0) + 0.00599 x(1,0) + 0.02516 x(2,0) >= 1
cut_clique_1(4,0):  0.04703 x(0,0) + 0.00779 x(1,0) + 0.02223 x(2,0) >= 1
cut_clique_1(5,0):  0.04703 x(0,0) + 0.00771 x(1,0) + 0.02223 x(2,0) >= 1
cut_clique_1(6,0):  0.04703 x(0,0) + 0.00872 x(1,0) + 0.02223 x(2,0) >= 1
cut_clique_1(7,0):  0.04703 x(0,0) + 0.00872 x(1,0) + 0.02246 x(2,0) >= 1
cut_clique_1(8,0):  0.04703 x(0,0) + 0.00872 x(1,0) + 0.02178 x(2,0) >= 1
cut_clique_1(9,0):  0.04703 x(0,0) + 0.00863 x(1,0) + 0.02178 x(2,0) >= 1
cut_clique_1(10,0):  0.04703 x(0,0) + 0.00759 x(1,0) + 0.02178 x(2,0) >= 1
cut_clique_1(11,0):  0.04703 x(0,0) + 0.00721 x(1,0) + 0.02178 x(2,0) >= 1
cut_clique_1(12,0):  0.04703 x(0,0) + 0.00642 x(1,0) + 0.02178 x(2,0) >= 1
cut_clique_1(13,0):  0.04703 x(0,0) + 0.00591 x(1,0) + 0.02178 x(2,0) >= 1
cut_clique_1(14,0):  0.04703 x(0,0) + 0.00591 x(1,0) + 0.02157 x(2,0) >= 1
cut_clique_1(15,0):  0.04703 x(0,0) + 0.00508 x(1,0) + 0.02157 x(2,0) >= 1
cut_clique_1(16,0):  0.04939 x(0,0) + 0.02108 x(2,0) >= 1
cut_clique_1(17,0):  0.04989 x(0,0) + 0.02108 x(2,0) >= 1
cut_clique_1(18,0):  0.04989 x(0,0) + 0.02024 x(2,0) >= 1
cut_clique_1(19,0):  0.05062 x(0,0) + 0.02024 x(2,0) >= 1
cut_clique_1(20,0):  0.05062 x(0,0) + 0.02185 x(2,0) >= 1
cut_clique_1(21,0):  0.04859 x(0,0) + 0.02295 x(2,0) >= 1
cut_clique_1(22,0):  0.05207 x(0,0) + 0.01951 x(2,0) >= 1
cut_clique_1(23,0):  0.05112 x(0,0) + 0.02051 x(2,0) >= 1
cut_clique_1(24,0):  0.05112 x(0,0) + 0.01989 x(2,0) >= 1
cut_clique_1(25,0):  0.05112 x(0,0) + 0.01910 x(2,0) >= 1
cut_clique_1(26,0):  0.05112 x(0,0) + 0.01967 x(2,0) >= 1
cut_clique_1(27,0):  0.05112 x(0,0) + 0.02046 x(2,0) >= 1
cut_clique_1(28,0):  0.05468 x(0,0) + 0.01737 x(2,0) >= 1
cut_clique_1(29,0):  0.05468 x(0,0) + 0.01740 x(2,0) >= 1
cut_clique_1(30,0):  0.05328 x(0,0) + 0.01869 x(2,0) >= 1
cut_clique_1(31,0):  0.05328 x(0,0) + 0.01850 x(2,0) >= 1
cut_clique_1(32,0):  0.05328 x(0,0) + 0.01702 x(2,0) >= 1
cut_clique_1(33,0):  0.05259 x(0,0) + 0.01893 x(2,0) >= 1
cut_clique_1(34,0):  0.05212 x(0,0) + 0.01954 x(2,0) >= 1
cut_clique_1(35,0):  0.04804 x(0,0) + 0.02236 x(2,0) >= 1
cut_clique_1(36,0):  0.04756 x(0,0) + 0.02236 x(2,0) >= 1
cut_clique_1(37,0):  0.04898 x(0,0) + 0.02294 x(2,0) >= 1
cut_clique_1(38,0):  0.04898 x(0,0) + 0.02110 x(2,0) >= 1
cut_clique_1(39,0):  0.05496 x(0,0) + 0.01731 x(2,0) >= 1
cut_clique_1(40,0):  0.05496 x(0,0) + 0.01627 x(2,0) >= 1
cut_clique_1(41,0):  0.05496 x(0,0) + 0.01594 x(2,0) >= 1
cut_clique_1(42,0):  0.05074 x(0,0) + 0.05628 x(1,0) + 0.00456 x(2,0) >= 1
cut_clique_1(43,0):  0.05053 x(0,0) + 0.01968 x(2,0) >= 1
cut_clique_1(44,0):  0.05053 x(0,0) + 0.02146 x(2,0) >= 1
cut_clique_1(45,0):  0.01230 x(0,0) + 0.15539 x(1,0) + 0.01536 x(2,0) >= 1
cut_clique_1(46,0):  0.01193 x(0,0) + 0.15539 x(1,0) + 0.01536 x(2,0) >= 1
cut_clique_1(47,0):  0.01325 x(0,0) + 0.15050 x(1,0) + 0.01536 x(2,0) >= 1
cut_clique_1(48,0):  0.05135 x(0,0) + 0.05118 x(1,0) + 0.00516 x(2,0) >= 1
cut_clique_1(49,0):  0.05074 x(0,0) + 0.05628 x(1,0) + 0.00456 x(2,0) >= 1
cut_clique_1(0,1):  0.47459 x(0,1) + 0.81636 x(1,1) + 0.82386 x(2,1) >= 1
cut_clique_1(1,1):  0.42374 x(0,1) + 0.77672 x(1,1) + 0.88160 x(2,1) >= 1
cut_clique_1(2,1):  0.48971 x(0,1) + 0.77750 x(1,1) + 0.97631 x(2,1) >= 1
cut_clique_1(3,1):  0.46033 x(0,1) + 0.77750 x(1,1) + 0.83962 x(2,1) >= 1
cut_clique_1(4,1):  0.47459 x(0,1) + 0.77672 x(1,1) + 0.88160 x(2,1) >= 1
cut_clique_1(5,1):  0.47459 x(0,1) + 0.83227 x(1,1) + 0.88160 x(2,1) >= 1
cut_clique_1(6,1):  0.43264 x(0,1) + 0.67775 x(1,1) + 0.98018 x(2,1) >= 1
cut_clique_1(7,1):  0.49626 x(0,1) + 0.70319 x(1,1) + 0.88823 x(2,1) >= 1
cut_clique_1(8,1):  0.48421 x(0,1) + 0.64386 x(1,1) + 0.98018 x(2,1) >= 1
cut_clique_1(9,1):  0.48421 x(0,1) + 0.59315 x(1,1) + 0.95155 x(2,1) >= 1
cut_clique_1(10,1):  0.40452 x(0,1) + 0.67775 x(1,1) + 0.98018 x(2,1) >= 1
cut_clique_1(11,1):  0.47459 x(0,1) + 0.83227 x(1,1) + 0.82386 x(2,1) >= 1
cut_clique_1(12,1):  0.36775 x(0,1) + 0.67775 x(1,1) + 0.98018 x(2,1) >= 1
cut_clique_1(13,1):  0.51696 x(0,1) + 0.74289 x(1,1) + 0.82386 x(2,1) >= 1
cut_clique_1(14,1):  0.47459 x(0,1) + 0.74289 x(1,1) + 0.82386 x(2,1) >= 1
cut_clique_1(15,1):  0.48421 x(0,1) + 0.64101 x(1,1) + 0.98018 x(2,1) >= 1
cut_clique_1(16,1):  0.47459 x(0,1) + 0.79567 x(1,1) + 0.82386 x(2,1) >= 1
cut_clique_1(17,1):  0.56348 x(0,1) + 0.77260 x(1,1) + 0.82386 x(2,1) >= 1
cut_clique_1(18,1):  0.46493 x(0,1) + 0.77672 x(1,1) + 0.83962 x(2,1) >= 1
cut_clique_1(19,1):  0.49234 x(0,1) + 0.74289 x(1,1) + 0.82386 x(2,1) >= 1
cut_clique_1(20,1):  0.57470 x(0,1) + 0.53530 x(1,1) + 0.92894 x(2,1) >= 1
cut_clique_1(21,1):  0.54588 x(0,1) + 0.61177 x(1,1) + 0.85980 x(2,1) >= 1
cut_clique_1(22,1):  0.48971 x(0,1) + 0.60895 x(1,1) + 0.97631 x(2,1) >= 1
cut_clique_1(23,1):  0.47459 x(0,1) + 0.83227 x(1,1) + 0.92568 x(2,1) >= 1
cut_clique_1(24,1):  0.44519 x(0,1) + 0.60895 x(1,1) + 0.97631 x(2,1) >= 1
cut_clique_1(25,1):  0.56348 x(0,1) + 0.68628 x(1,1) + 0.82386 x(2,1) >= 1
cut_clique_1(26,1):  0.46493 x(0,1) + 0.77672 x(1,1) + 0.88160 x(2,1) >= 1
cut_clique_1(27,1):  0.57470 x(0,1) + 0.56348 x(1,1) + 0.89184 x(2,1) >= 1
cut_clique_1(28,1):  0.54103 x(0,1) + 0.74289 x(1,1) + 0.82386 x(2,1) >= 1
cut_clique_1(29,1):  0.50307 x(0,1) + 0.59452 x(1,1) + 0.98018 x(2,1) >= 1
cut_clique_1(30,1):  0.48421 x(0,1) + 0.58274 x(1,1) + 0.98018 x(2,1) >= 1
cut_clique_1(31,1):  0.48421 x(0,1) + 0.57697 x(1,1) + 0.98018 x(2,1) >= 1
cut_clique_1(32,1):  0.47459 x(0,1) + 0.82403 x(1,1) + 0.88160 x(2,1) >= 1
cut_clique_1(33,1):  0.56348 x(0,1) + 0.72060 x(1,1) + 0.82386 x(2,1) >= 1
cut_clique_1(34,1):  0.48421 x(0,1) + 0.67775 x(1,1) + 0.98018 x(2,1) >= 1
cut_clique_1(35,1):  0.46115 x(0,1) + 0.67775 x(1,1) + 0.98018 x(2,1) >= 1
cut_clique_1(36,1):  0.47459 x(0,1) + 0.90707 x(1,1) + 0.82386 x(2,1) >= 1
cut_clique_1(37,1):  0.48421 x(0,1) + 0.56016 x(1,1) + 0.98018 x(2,1) >= 1
cut_clique_1(38,1):  0.56348 x(0,1) + 0.79578 x(1,1) + 0.82386 x(2,1) >= 1
cut_clique_1(39,1):  0.47459 x(0,1) + 0.80003 x(1,1) + 0.88160 x(2,1) >= 1
cut_clique_1(40,1):  0.46033 x(0,1) + 0.77750 x(1,1) + 0.97631 x(2,1) >= 1
cut_clique_1(41,1):  0.50307 x(0,1) + 0.69130 x(1,1) + 0.85980 x(2,1) >= 1
cut_clique_1(42,1):  0.56348 x(0,1) + 0.74289 x(1,1) + 0.82386 x(2,1) >= 1
cut_clique_1(43,1):  0.48971 x(0,1) + 0.68202 x(1,1) + 0.97631 x(2,1) >= 1
cut_clique_1(44,1):  0.57470 x(0,1) + 0.53530 x(1,1) + 0.99886 x(2,1) >= 1
cut_clique_1(45,1):  0.56348 x(0,1) + 0.72060 x(1,1) + 0.74147 x(2,1) >= 1
cut_clique_1(46,1):  0.48421 x(0,1) + 0.58973 x(1,1) + 0.98018 x(2,1) >= 1
cut_clique_1(47,1):  0.45564 x(0,1) + 0.77672 x(1,1) + 0.88160 x(2,1) >= 1
cut_clique_1(48,1):  0.56348 x(0,1) + 0.77987 x(1,1) + 0.82386 x(2,1) >= 1
cut_clique_1(49,1):  0.47459 x(0,1) + 0.80730 x(1,1) + 0.82386 x(2,1) >= 1
cut_clique_1(0,2):  0.03922 x(0,2) + 0.01080 x(1,2) + 0.05084 x(2,2) >= 1
cut_clique_1(1,2):  0.03771 x(0,2) + 0.01463 x(1,2) + 0.05007 x(2,2) >= 1
cut_clique_1(2,2):  0.04347 x(0,2) + 0.01662 x(1,2) + 0.05007 x(2,2) >= 1
cut_clique_1(3,2):  0.03913 x(0,2) + 0.01889 x(1,2) + 0.05327 x(2,2) >= 1
cut_clique_1(4,2):  0.03922 x(0,2) + 0.01019 x(1,2) + 0.05070 x(2,2) >= 1
cut_clique_1(5,2):  0.04471 x(0,2) + 0.00994 x(1,2) + 0.05084 x(2,2) >= 1
cut_clique_1(6,2):  0.04840 x(0,2) + 0.00875 x(1,2) + 0.05033 x(2,2) >= 1
cut_clique_1(7,2):  0.04840 x(0,2) + 0.00787 x(1,2) + 0.04485 x(2,2) >= 1
cut_clique_1(8,2):  0.04840 x(0,2) + 0.00875 x(1,2) + 0.04485 x(2,2) >= 1
cut_clique_1(9,2):  0.04840 x(0,2) + 0.00905 x(1,2) + 0.04350 x(2,2) >= 1
cut_clique_1(10,2):  0.04840 x(0,2) + 0.00887 x(1,2) + 0.04350 x(2,2) >= 1
cut_clique_1(11,2):  0.04114 x(0,2) + 0.00887 x(1,2) + 0.04307 x(2,2) >= 1
cut_clique_1(12,2):  0.04114 x(0,2) + 0.00887 x(1,2) + 0.04350 x(2,2) >= 1
cut_clique_1(13,2):  0.04840 x(0,2) + 0.00787 x(1,2) + 0.04350 x(2,2) >= 1
cut_clique_1(14,2):  0.04245 x(0,2) + 0.00875 x(1,2) + 0.05084 x(2,2) >= 1
cut_clique_1(15,2):  0.04304 x(0,2) + 0.01889 x(1,2) + 0.05007 x(2,2) >= 1
cut_clique_1(16,2):  0.03771 x(0,2) + 0.01316 x(1,2) + 0.05007 x(2,2) >= 1
cut_clique_1(17,2):  0.03771 x(0,2) + 0.01662 x(1,2) + 0.05007 x(2,2) >= 1
cut_clique_1(18,2):  0.03771 x(0,2) + 0.01019 x(1,2) + 0.04845 x(2,2) >= 1
cut_clique_1(19,2):  0.04304 x(0,2) + 0.01889 x(1,2) + 0.05327 x(2,2) >= 1
cut_clique_1(20,2):  0.03913 x(0,2) + 0.01730 x(1,2) + 0.05327 x(2,2) >= 1
cut_clique_1(21,2):  0.09976 x(0,2) + 0.02223 x(2,2) >= 1
cut_clique_1(22,2):  0.04114 x(0,2) + 0.00825 x(1,2) + 0.04307 x(2,2) >= 1
cut_clique_1(23,2):  0.09976 x(0,2) + 0.02245 x(2,2) >= 1
cut_clique_1(24,2):  0.04471 x(0,2) + 0.01080 x(1,2) + 0.05084 x(2,2) >= 1
cut_clique_1(25,2):  0.03922 x(0,2) + 0.01080 x(1,2) + 0.05526 x(2,2) >= 1
cut_clique_1(26,2):  0.03771 x(0,2) + 0.01019 x(1,2) + 0.04614 x(2,2) >= 1
cut_clique_1(27,2):  0.04099 x(0,2) + 0.01662 x(1,2) + 0.05007 x(2,2) >= 1
cut_clique_1(28,2):  0.04361 x(0,2) + 0.01662 x(1,2) + 0.05007 x(2,2) >= 1
cut_clique_1(29,2):  0.08443 x(0,2) + 0.02946 x(1,2) >= 1
cut_clique_1(30,2):  0.02270 x(0,2) + 0.09947 x(1,2) >= 1
cut_clique_1(31,2):  0.10033 x(0,2) + 0.02128 x(2,2) >= 1
cut_clique_1(32,2):  0.02179 x(0,2) + 0.09947 x(1,2) >= 1
cut_clique_1(33,2):  0.04936 x(0,2) + 0.00994 x(1,2) + 0.05084 x(2,2) >= 1
cut_clique_1(34,2):  0.03771 x(0,2) + 0.01019 x(1,2) + 0.04409 x(2,2) >= 1
cut_clique_1(35,2):  0.03771 x(0,2) + 0.01316 x(1,2) + 0.04857 x(2,2) >= 1
cut_clique_1(36,2):  0.03825 x(0,2) + 0.01662 x(1,2) + 0.05007 x(2,2) >= 1
cut_clique_1(37,2):  0.02397 x(0,2) + 0.09648 x(1,2) >= 1
cut_clique_1(38,2):  0.04304 x(0,2) + 0.01662 x(1,2) + 0.05007 x(2,2) >= 1
cut_clique_1(39,2):  0.03922 x(0,2) + 0.01019 x(1,2) + 0.05526 x(2,2) >= 1
cut_clique_1(40,2):  0.04603 x(0,2) + 0.01730 x(1,2) + 0.05327 x(2,2) >= 1
cut_clique_1(41,2):  0.03771 x(0,2) + 0.01145 x(1,2) + 0.04857 x(2,2) >= 1
cut_clique_1(42,2):  0.04245 x(0,2) + 0.00875 x(1,2) + 0.05033 x(2,2) >= 1
cut_clique_1(43,2):  0.10033 x(0,2) + 0.02162 x(2,2) >= 1
cut_clique_1(44,2):  0.03771 x(0,2) + 0.01145 x(1,2) + 0.04614 x(2,2) >= 1
cut_clique_1(45,2):  0.04936 x(0,2) + 0.00875 x(1,2) + 0.05084 x(2,2) >= 1
cut_clique_1(46,2):  0.05142 x(0,2) + 0.00994 x(1,2) + 0.05084 x(2,2) >= 1
cut_clique_1(47,2):  0.04840 x(0,2) + 0.00875 x(1,2) + 0.04983 x(2,2) >= 1
cut_clique_1(48,2):  0.03913 x(0,2) + 0.01852 x(1,2) + 0.05327 x(2,2) >= 1
cut_clique_1(49,2):  0.03922 x(0,2) + 0.01019 x(1,2) + 0.04409 x(2,2) >= 1
cut_clique_2(0,1):  0.07100 x(0,1) + 0.51135 x(1,1) + 0.06537 x(2,1) >= 1
cut_clique_2(1,1):  0.06539 x(0,1) + 0.70652 x(1,1) + 0.07363 x(2,1) >= 1
cut_clique_2(2,1):  0.07147 x(0,1) + 0.30566 x(1,1) + 0.06847 x(2,1) >= 1
cut_clique_2(3,1):  0.06595 x(0,1) + 0.41913 x(1,1) + 0.07294 x(2,1) >= 1
cut_clique_2(4,1):  0.07100 x(0,1) + 0.31960 x(1,1) + 0.06537 x(2,1) >= 1
cut_clique_2(5,1):  0.07100 x(0,1) + 0.29203 x(1,1) + 0.06537 x(2,1) >= 1
cut_clique_2(6,1):  0.06473 x(0,1) + 0.83527 x(1,1) + 0.07363 x(2,1) >= 1
cut_clique_2(7,1):  0.07812 x(0,1) + 0.47026 x(1,1) + 0.06355 x(2,1) >= 1
cut_clique_2(8,1):  0.07147 x(0,1) + 0.33671 x(1,1) + 0.06847 x(2,1) >= 1
cut_clique_2(9,1):  0.06473 x(0,1) + 0.96319 x(1,1) + 0.07363 x(2,1) >= 1
cut_clique_2(10,1):  0.07494 x(0,1) + 0.98818 x(1,1) + 0.06379 x(2,1) >= 1
cut_clique_2(11,1):  0.06372 x(0,1) + 0.60974 x(1,1) + 0.07565 x(2,1) >= 1
cut_clique_2(12,1):  0.06933 x(0,1) + 0.21885 x(1,1) + 0.07145 x(2,1) >= 1
cut_clique_2(13,1):  0.06995 x(0,1) + 0.33472 x(1,1) + 0.06907 x(2,1) >= 1
cut_clique_2(14,1):  0.06795 x(0,1) + 0.21885 x(1,1) + 0.06645 x(2,1) >= 1
cut_clique_2(15,1):  0.06473 x(0,1) + 0.92614 x(1,1) + 0.07363 x(2,1) >= 1
cut_clique_2(16,1):  0.06539 x(0,1) + 0.73917 x(1,1) + 0.07363 x(2,1) >= 1
cut_clique_2(17,1):  0.06473 x(0,1) + 0.93550 x(1,1) + 0.07363 x(2,1) >= 1
cut_clique_2(18,1):  0.06372 x(0,1) + 0.76987 x(1,1) + 0.07565 x(2,1) >= 1
cut_clique_2(19,1):  0.06473 x(0,1) + 0.99208 x(1,1) + 0.07363 x(2,1) >= 1
cut_clique_2(20,1):  0.07100 x(0,1) + 0.39695 x(1,1) + 0.06537 x(2,1) >= 1
cut_clique_2(21,1):  0.06539 x(0,1) + 0.74891 x(1,1) + 0.07363 x(2,1) >= 1
cut_clique_2(22,1):  0.06372 x(0,1) + 0.67748 x(1,1) + 0.07565 x(2,1) >= 1
cut_clique_2(23,1):  0.06372 x(0,1) + 0.56096 x(1,1) + 0.07490 x(2,1) >= 1
cut_clique_2(24,1):  0.07100 x(0,1) + 0.34517 x(1,1) + 0.06537 x(2,1) >= 1
cut_clique_2(25,1):  0.06795 x(0,1) + 0.20353 x(1,1) + 0.06645 x(2,1) >= 1
cut_clique_2(26,1):  0.07100 x(0,1) + 0.44855 x(1,1) + 0.06537 x(2,1) >= 1
cut_clique_2(27,1):  0.06539 x(0,1) + 0.66030 x(1,1) + 0.07514 x(2,1) >= 1
cut_clique_2(28,1):  0.06539 x(0,1) + 0.70652 x(1,1) + 0.07514 x(2,1) >= 1
cut_clique_2(29,1):  0.06372 x(0,1) + 0.62827 x(1,1) + 0.07490 x(2,1) >= 1
cut_clique_2(30,1):  0.06539 x(0,1) + 0.70397 x(1,1) + 0.07363 x(2,1) >= 1
cut_clique_2(31,1):  0.06372 x(0,1) + 0.60974 x(1,1) + 0.07490 x(2,1) >= 1
cut_clique_2(32,1):  0.06539 x(0,1) + 0.64735 x(1,1) + 0.07514 x(2,1) >= 1
cut_clique_2(33,1):  0.06795 x(0,1) + 0.19946 x(1,1) + 0.06645 x(2,1) >= 1
cut_clique_2(34,1):  0.07100 x(0,1) + 0.28035 x(1,1) + 0.06537 x(2,1) >= 1
cut_clique_2(35,1):  0.06473 x(0,1) + 0.73917 x(1,1) + 0.07363 x(2,1) >= 1
cut_clique_2(36,1):  0.06806 x(0,1) + 0.35384 x(1,1) + 0.06817 x(2,1) >= 1
cut_clique_2(37,1):  0.06795 x(0,1) + 0.19946 x(1,1) + 0.06711 x(2,1) >= 1
cut_clique_2(38,1):  0.06595 x(0,1) + 0.40692 x(1,1) + 0.07294 x(2,1) >= 1
cut_clique_2(39,1):  0.06410 x(0,1) + 0.63047 x(1,1) + 0.07554 x(2,1) >= 1
cut_clique_2(40,1):  0.06995 x(0,1) + 0.32803 x(1,1) + 0.06907 x(2,1) >= 1
cut_clique_2(41,1):  0.06473 x(0,1) + 0.84195 x(1,1) + 0.07363 x(2,1) >= 1
cut_clique_2(42,1):  0.07100 x(0,1) + 0.53691 x(1,1) + 0.06537 x(2,1) >= 1
cut_clique_2(43,1):  0.06795 x(0,1) + 0.21885 x(1,1) + 0.07145 x(2,1) >= 1
cut_clique_2(44,1):  0.07147 x(0,1) + 0.29967 x(1,1) + 0.06847 x(2,1) >= 1
cut_clique_2(45,1):  0.06358 x(0,1) + 0.53613 x(1,1) + 0.07616 x(2,1) >= 1
cut_clique_2(46,1):  0.07147 x(0,1) + 0.32094 x(1,1) + 0.06847 x(2,1) >= 1
cut_clique_2(47,1):  0.06539 x(0,1) + 0.68867 x(1,1) + 0.07514 x(2,1) >= 1
cut_clique_2(48,1):  0.06806 x(0,1) + 0.37643 x(1,1) + 0.06817 x(2,1) >= 1
cut_clique_2(49,1):  0.07100 x(0,1) + 0.27813 x(1,1) + 0.06537 x(2,1) >= 1
cut_clique_3(0,1):  0.53927 x(0,1) + 0.14289 x(2,1) >= 1
cut_clique_3(1,1):  0.56765 x(0,1) + 0.14289 x(2,1) >= 1
cut_clique_3(2,1):  0.63781 x(0,1) + 0.14289 x(2,1) >= 1
cut_clique_3(3,1):  0.43902 x(0,1) + 0.14289 x(2,1) >= 1
cut_clique_3(4,1):  0.97768 x(0,1) + 0.14312 x(2,1) >= 1
cut_clique_3(5,1):  0.93393 x(0,1) + 0.14323 x(2,1) >= 1
cut_clique_3(6,1):  0.57461 x(0,1) + 0.14289 x(2,1) >= 1
cut_clique_3(7,1):  0.62647 x(0,1) + 0.14296 x(2,1) >= 1
cut_clique_3(8,1):  0.44118 x(0,1) + 0.14289 x(2,1) >= 1
cut_clique_3(9,1):  0.62780 x(0,1) + 0.14312 x(2,1) >= 1
cut_clique_3(10,1):  0.49020 x(0,1) + 0.14289 x(2,1) >= 1
cut_clique_3(11,1):  0.40635 x(0,1) + 0.14289 x(2,1) >= 1
cut_clique_3(12,1):  0.40144 x(0,1) + 0.14289 x(2,1) >= 1
cut_clique_3(13,1):  0.17140 x(0,1) + 0.14302 x(2,1) >= 1
cut_clique_3(14,1):  0.55157 x(0,1) + 0.14296 x(2,1) >= 1
cut_clique_3(15,1):  0.86520 x(0,1) + 0.14312 x(2,1) >= 1
cut_clique_3(16,1):  0.75214 x(0,1) + 0.14317 x(2,1) >= 1
cut_clique_3(17,1):  0.79601 x(0,1) + 0.14299 x(2,1) >= 1
cut_clique_3(18,1):  0.17489 x(0,1) + 0.14302 x(2,1) >= 1
cut_clique_3(19,1):  0.39072 x(0,1) + 0.14289 x(2,1) >= 1
cut_clique_3(20,1):  0.40014 x(0,1) + 0.14299 x(2,1) >= 1
cut_clique_3(21,1):  0.56558 x(0,1) + 0.14312 x(2,1) >= 1
cut_clique_3(22,1):  0.58006 x(0,1) + 0.14296 x(2,1) >= 1
cut_clique_3(23,1):  0.83531 x(0,1) + 0.14322 x(2,1) >= 1
cut_clique_3(24,1):  0.39682 x(0,1) + 0.14302 x(2,1) >= 1
cut_clique_3(25,1):  0.47206 x(0,1) + 0.14289 x(2,1) >= 1
cut_clique_3(26,1):  0.20337 x(0,1) + 0.14302 x(2,1) >= 1
cut_clique_3(27,1):  0.54053 x(0,1) + 0.14296 x(2,1) >= 1
cut_clique_3(28,1):  0.72044 x(0,1) + 0.14296 x(2,1) >= 1
cut_clique_3(29,1):  0.59999 x(0,1) + 0.14296 x(2,1) >= 1
cut_clique_3(30,1):  0.48534 x(0,1) + 0.14289 x(2,1) >= 1
cut_clique_3(31,1):  0.75235 x(0,1) + 0.14312 x(2,1) >= 1
cut_clique_3(32,1):  0.62678 x(0,1) + 0.14296 x(2,1) >= 1
cut_clique_3(33,1):  0.67174 x(0,1) + 0.14312 x(2,1) >= 1
cut_clique_3(34,1):  0.95813 x(0,1) + 0.14312 x(2,1) >= 1
cut_clique_3(35,1):  0.95580 x(0,1) + 0.14323 x(2,1) >= 1
cut_clique_3(36,1):  0.84138 x(0,1) + 0.14323 x(2,1) >= 1
cut_clique_3(37,1):  0.96536 x(0,1) + 0.14323 x(2,1) >= 1
cut_clique_3(38,1):  0.45105 x(0,1) + 0.14289 x(2,1) >= 1
cut_clique_3(39,1):  0.97129 x(0,1) + 0.14322 x(2,1) >= 1
cut_clique_3(40,1):  0.39742 x(0,1) + 0.14289 x(2,1) >= 1
cut_clique_3(41,1):  0.93393 x(0,1) + 0.14322 x(2,1) >= 1
cut_clique_3(42,1):  0.55799 x(0,1) + 0.14296 x(2,1) >= 1
cut_clique_3(43,1):  0.93601 x(0,1) + 0.14323 x(2,1) >= 1
cut_clique_3(44,1):  0.97501 x(0,1) + 0.14323 x(2,1) >= 1
cut_clique_3(45,1):  0.69944 x(0,1) + 0.14296 x(2,1) >= 1
cut_clique_3(46,1):  0.66815 x(0,1) + 0.14289 x(2,1) >= 1
cut_clique_3(47,1):  0.64169 x(0,1) + 0.14296 x(2,1) >= 1
cut_clique_3(48,1):  0.74462 x(0,1) + 0.14317 x(2,1) >= 1
cut_clique_3(49,1):  0.97729 x(0,1) + 0.14312 x(2,1) >= 1
cut_clique_3(0,2):  0.04655 x(0,2) + 0.02287 x(1,2) + 0.02094 x(2,2) >= 1
cut_clique_3(1,2):  0.04655 x(0,2) + 0.02059 x(1,2) + 0.02094 x(2,2) >= 1
cut_clique_3(2,2):  0.04562 x(0,2) + 0.02059 x(1,2) + 0.02094 x(2,2) >= 1
cut_clique_3(3,2):  0.04242 x(0,2) + 0.02059 x(1,2) + 0.02094 x(2,2) >= 1
cut_clique_3(4,2):  0.04242 x(0,2) + 0.02223 x(1,2) + 0.02094 x(2,2) >= 1
cut_clique_3(5,2):  0.04497 x(0,2) + 0.02223 x(1,2) + 0.02094 x(2,2) >= 1
cut_clique_3(6,2):  0.04497 x(0,2) + 0.02490 x(1,2) + 0.01990 x(2,2) >= 1
cut_clique_3(7,2):  0.04497 x(0,2) + 0.02490 x(1,2) + 0.01691 x(2,2) >= 1
cut_clique_3(8,2):  0.04587 x(0,2) + 0.02490 x(1,2) + 0.01691 x(2,2) >= 1
cut_clique_3(9,2):  0.04587 x(0,2) + 0.02689 x(1,2) + 0.01691 x(2,2) >= 1
cut_clique_3(10,2):  0.04587 x(0,2) + 0.02689 x(1,2) + 0.01623 x(2,2) >= 1
cut_clique_3(11,2):  0.04816 x(0,2) + 0.02512 x(1,2) + 0.01591 x(2,2) >= 1
cut_clique_4(0,1):  0.05632 x(0,1) + 0.06374 x(1,1) + 0.10485 x(2,1) >= 1
cut_clique_4(1,1):  0.05594 x(0,1) + 0.05813 x(1,1) + 0.09751 x(2,1) >= 1
cut_clique_4(2,1):  0.05632 x(0,1) + 0.05482 x(1,1) + 0.09751 x(2,1) >= 1
cut_clique_4(3,1):  0.05594 x(0,1) + 0.05813 x(1,1) + 0.10043 x(2,1) >= 1
cut_clique_4(4,1):  0.06367 x(0,1) + 0.05380 x(1,1) + 0.08827 x(2,1) >= 1
cut_clique_4(5,1):  0.05460 x(0,1) + 0.06184 x(1,1) + 0.10300 x(2,1) >= 1
cut_clique_4(6,1):  0.05594 x(0,1) + 0.05813 x(1,1) + 0.09943 x(2,1) >= 1
cut_clique_4(7,1):  0.06288 x(0,1) + 0.05252 x(1,1) + 0.09817 x(2,1) >= 1
cut_clique_4(8,1):  0.06225 x(0,1) + 0.05432 x(1,1) + 0.08956 x(2,1) >= 1
cut_clique_4(9,1):  0.05538 x(0,1) + 0.05813 x(1,1) + 0.10150 x(2,1) >= 1
cut_clique_4(10,1):  0.06367 x(0,1) + 0.05380 x(1,1) + 0.10151 x(2,1) >= 1
cut_clique_4(11,1):  0.06203 x(0,1) + 0.05327 x(1,1) + 0.10302 x(2,1) >= 1
cut_clique_4(12,1):  0.06225 x(0,1) + 0.05432 x(1,1) + 0.10300 x(2,1) >= 1
cut_clique_4(13,1):  0.06006 x(0,1) + 0.06184 x(1,1) + 0.08529 x(2,1) >= 1
cut_clique_4(14,1):  0.06225 x(0,1) + 0.05432 x(1,1) + 0.10295 x(2,1) >= 1
cut_clique_4(15,1):  0.06006 x(0,1) + 0.05380 x(1,1) + 0.08529 x(2,1) >= 1
cut_clique_4(16,1):  0.05594 x(0,1) + 0.05813 x(1,1) + 0.09663 x(2,1) >= 1
cut_clique_4(17,1):  0.05632 x(0,1) + 0.05743 x(1,1) + 0.10485 x(2,1) >= 1
cut_clique_4(18,1):  0.06367 x(0,1) + 0.04961 x(1,1) + 0.10049 x(2,1) >= 1
cut_clique_4(19,1):  0.06083 x(0,1) + 0.05265 x(1,1) + 0.09751 x(2,1) >= 1
cut_clique_4(20,1):  0.05632 x(0,1) + 0.06374 x(1,1) + 0.09751 x(2,1) >= 1
cut_clique_4(21,1):  0.05723 x(0,1) + 0.05304 x(1,1) + 0.09449 x(2,1) >= 1
cut_clique_4(22,1):  0.06203 x(0,1) + 0.05348 x(1,1) + 0.10302 x(2,1) >= 1
cut_clique_4(23,1):  0.06006 x(0,1) + 0.05380 x(1,1) + 0.09723 x(2,1) >= 1
cut_clique_4(24,1):  0.06006 x(0,1) + 0.05380 x(1,1) + 0.08654 x(2,1) >= 1
cut_clique_4(25,1):  0.06367 x(0,1) + 0.05380 x(1,1) + 0.08654 x(2,1) >= 1
cut_clique_4(26,1):  0.06367 x(0,1) + 0.04961 x(1,1) + 0.08497 x(2,1) >= 1
cut_clique_4(27,1):  0.05353 x(0,1) + 0.06184 x(1,1) + 0.10300 x(2,1) >= 1
cut_clique_4(28,1):  0.05607 x(0,1) + 0.05554 x(1,1) + 0.10563 x(2,1) >= 1
cut_clique_4(29,1):  0.05607 x(0,1) + 0.05554 x(1,1) + 0.09824 x(2,1) >= 1
cut_clique_4(30,1):  0.06237 x(0,1) + 0.04832 x(1,1) + 0.09431 x(2,1) >= 1
cut_clique_4(31,1):  0.06237 x(0,1) + 0.04494 x(1,1) + 0.09431 x(2,1) >= 1
cut_clique_4(32,1):  0.06237 x(0,1) + 0.05168 x(1,1) + 0.09431 x(2,1) >= 1
cut_clique_4(33,1):  0.06362 x(0,1) + 0.05168 x(1,1) + 0.09431 x(2,1) >= 1
cut_clique_4(34,1):  0.06362 x(0,1) + 0.04703 x(1,1) + 0.09431 x(2,1) >= 1
cut_clique_4(35,1):  0.06362 x(0,1) + 0.04703 x(1,1) + 0.08394 x(2,1) >= 1
cut_clique_4(36,1):  0.06362 x(0,1) + 0.04703 x(1,1) + 0.08058 x(2,1) >= 1
cut_clique_4(37,1):  0.06362 x(0,1) + 0.05361 x(1,1) + 0.08058 x(2,1) >= 1
cut_clique_4(38,1):  0.06362 x(0,1) + 0.05361 x(1,1) + 0.07735 x(2,1) >= 1
cut_clique_4(39,1):  0.05980 x(0,1) + 0.05361 x(1,1) + 0.08586 x(2,1) >= 1
cut_clique_4(40,1):  0.05980 x(0,1) + 0.05361 x(1,1) + 0.09273 x(2,1) >= 1
cut_clique_4(41,1):  0.05980 x(0,1) + 0.05361 x(1,1) + 0.10386 x(2,1) >= 1
cut_clique_4(42,1):  0.06288 x(0,1) + 0.04989 x(1,1) + 0.09817 x(2,1) >= 1
cut_clique_4(43,1):  0.05902 x(0,1) + 0.05361 x(1,1) + 0.10386 x(2,1) >= 1
cut_clique_4(44,1):  0.05902 x(0,1) + 0.05361 x(1,1) + 0.09036 x(2,1) >= 1
cut_clique_4(45,1):  0.05902 x(0,1) + 0.05468 x(1,1) + 0.09036 x(2,1) >= 1
cut_clique_4(46,1):  0.06079 x(0,1) + 0.05468 x(1,1) + 0.09036 x(2,1) >= 1
cut_clique_4(47,1):  0.05594 x(0,1) + 0.06055 x(1,1) + 0.09751 x(2,1) >= 1
cut_clique_4(48,1):  0.06367 x(0,1) + 0.04961 x(1,1) + 0.08944 x(2,1) >= 1
cut_clique_4(49,1):  0.06006 x(0,1) + 0.06184 x(1,1) + 0.09373 x(2,1) >= 1
cut_clique_5(0,1):  0.06918 x(0,1) + 0.03735 x(1,1) + 0.07259 x(2,1) >= 1
cut_clique_5(1,1):  0.06888 x(0,1) + 0.03895 x(1,1) + 0.07031 x(2,1) >= 1
cut_clique_5(2,1):  0.06888 x(0,1) + 0.03856 x(1,1) + 0.06890 x(2,1) >= 1
cut_clique_5(3,1):  0.06856 x(0,1) + 0.03743 x(1,1) + 0.07338 x(2,1) >= 1
cut_clique_5(4,1):  0.06695 x(0,1) + 0.03818 x(1,1) + 0.07001 x(2,1) >= 1
cut_clique_5(5,1):  0.07199 x(0,1) + 0.03818 x(1,1) + 0.07001 x(2,1) >= 1
cut_clique_5(6,1):  0.06988 x(0,1) + 0.03735 x(1,1) + 0.07259 x(2,1) >= 1
cut_clique_5(7,1):  0.06663 x(0,1) + 0.04098 x(1,1) + 0.07316 x(2,1) >= 1
cut_clique_5(8,1):  0.06875 x(0,1) + 0.04056 x(1,1) + 0.07206 x(2,1) >= 1
cut_clique_5(9,1):  0.06875 x(0,1) + 0.04056 x(1,1) + 0.06774 x(2,1) >= 1
cut_clique_5(10,1):  0.07150 x(0,1) + 0.04056 x(1,1) + 0.06774 x(2,1) >= 1
cut_clique_5(11,1):  0.06936 x(0,1) + 0.04056 x(1,1) + 0.06774 x(2,1) >= 1
cut_clique_5(12,1):  0.06936 x(0,1) + 0.03974 x(1,1) + 0.06774 x(2,1) >= 1
cut_clique_5(13,1):  0.06658 x(0,1) + 0.03974 x(1,1) + 0.06774 x(2,1) >= 1
cut_clique_5(14,1):  0.06918 x(0,1) + 0.03735 x(1,1) + 0.07188 x(2,1) >= 1
cut_clique_5(15,1):  0.07195 x(0,1) + 0.03847 x(1,1) + 0.06936 x(2,1) >= 1
cut_clique_5(16,1):  0.06922 x(0,1) + 0.03696 x(1,1) + 0.06992 x(2,1) >= 1
cut_clique_5(17,1):  0.06922 x(0,1) + 0.04140 x(1,1) + 0.06992 x(2,1) >= 1
cut_clique_5(18,1):  0.06714 x(0,1) + 0.04140 x(1,1) + 0.06992 x(2,1) >= 1
cut_clique_5(19,1):  0.06988 x(0,1) + 0.03811 x(1,1) + 0.07259 x(2,1) >= 1
cut_clique_5(20,1):  0.06888 x(0,1) + 0.03895 x(1,1) + 0.06760 x(2,1) >= 1
cut_clique_5(21,1):  0.06641 x(0,1) + 0.03883 x(1,1) + 0.07188 x(2,1) >= 1
cut_clique_5(22,1):  0.07370 x(0,1) + 0.03856 x(1,1) + 0.06890 x(2,1) >= 1
cut_clique_5(23,1):  0.07117 x(0,1) + 0.04188 x(1,1) + 0.06713 x(2,1) >= 1
cut_clique_5(24,1):  0.07117 x(0,1) + 0.03895 x(1,1) + 0.06713 x(2,1) >= 1
cut_clique_5(25,1):  0.07117 x(0,1) + 0.03817 x(1,1) + 0.06713 x(2,1) >= 1
cut_clique_5(26,1):  0.06904 x(0,1) + 0.03817 x(1,1) + 0.06713 x(2,1) >= 1
cut_clique_5(27,1):  0.06904 x(0,1) + 0.03893 x(1,1) + 0.06713 x(2,1) >= 1
cut_clique_5(28,1):  0.06904 x(0,1) + 0.04205 x(1,1) + 0.06713 x(2,1) >= 1
cut_clique_5(29,1):  0.06973 x(0,1) + 0.04205 x(1,1) + 0.06713 x(2,1) >= 1
cut_clique_5(30,1):  0.06973 x(0,1) + 0.04163 x(1,1) + 0.06713 x(2,1) >= 1
cut_clique_5(31,1):  0.07182 x(0,1) + 0.04163 x(1,1) + 0.06713 x(2,1) >= 1
cut_clique_5(32,1):  0.06679 x(0,1) + 0.04163 x(1,1) + 0.06713 x(2,1) >= 1
cut_clique_5(33,1):  0.06679 x(0,1) + 0.03996 x(1,1) + 0.06713 x(2,1) >= 1
cut_clique_5(34,1):  0.06679 x(0,1) + 0.03996 x(1,1) + 0.06981 x(2,1) >= 1
cut_clique_5(35,1):  0.06679 x(0,1) + 0.04196 x(1,1) + 0.06981 x(2,1) >= 1
cut_clique_5(36,1):  0.07066 x(0,1) + 0.03818 x(1,1) + 0.07001 x(2,1) >= 1
cut_clique_5(37,1):  0.06530 x(0,1) + 0.04098 x(1,1) + 0.07316 x(2,1) >= 1
cut_clique_5(38,1):  0.07434 x(0,1) + 0.03776 x(1,1) + 0.06981 x(2,1) >= 1
cut_clique_5(39,1):  0.07285 x(0,1) + 0.03776 x(1,1) + 0.06981 x(2,1) >= 1
cut_clique_5(40,1):  0.07285 x(0,1) + 0.03776 x(1,1) + 0.06772 x(2,1) >= 1
cut_clique_5(41,1):  0.07285 x(0,1) + 0.03776 x(1,1) + 0.06840 x(2,1) >= 1
cut_clique_5(42,1):  0.06888 x(0,1) + 0.03856 x(1,1) + 0.07031 x(2,1) >= 1
cut_clique_5(43,1):  0.06856 x(0,1) + 0.03743 x(1,1) + 0.06923 x(2,1) >= 1
cut_clique_5(44,1):  0.06530 x(0,1) + 0.04254 x(1,1) + 0.07316 x(2,1) >= 1
cut_clique_5(45,1):  0.06896 x(0,1) + 0.03818 x(1,1) + 0.07001 x(2,1) >= 1
cut_clique_5(46,1):  0.06918 x(0,1) + 0.03883 x(1,1) + 0.07188 x(2,1) >= 1
cut_clique_5(47,1):  0.06856 x(0,1) + 0.03743 x(1,1) + 0.07144 x(2,1) >= 1
cut_clique_5(48,1):  0.06712 x(0,1) + 0.04182 x(1,1) + 0.06913 x(2,1) >= 1
cut_clique_5(49,1):  0.07246 x(0,1) + 0.03700 x(1,1) + 0.07259 x(2,1) >= 1
cut_clique_6(0,1):  0.06646 x(0,1) + 0.03844 x(1,1) + 0.06734 x(2,1) >= 1
cut_clique_6(1,1):  0.06646 x(0,1) + 0.03864 x(1,1) + 0.06792 x(2,1) >= 1
cut_clique_6(2,1):  0.06739 x(0,1) + 0.03815 x(1,1) + 0.06665 x(2,1) >= 1
cut_clique_6(3,1):  0.06904 x(0,1) + 0.03829 x(1,1) + 0.06665 x(2,1) >= 1
cut_clique_6(4,1):  0.06628 x(0,1) + 0.03895 x(1,1) + 0.06793 x(2,1) >= 1
cut_clique_6(5,1):  0.06750 x(0,1) + 0.03795 x(1,1) + 0.06744 x(2,1) >= 1
cut_clique_6(6,1):  0.06750 x(0,1) + 0.03832 x(1,1) + 0.06744 x(2,1) >= 1
cut_clique_6(7,1):  0.06795 x(0,1) + 0.03840 x(1,1) + 0.06744 x(2,1) >= 1
cut_clique_6(8,1):  0.06784 x(0,1) + 0.03792 x(1,1) + 0.06764 x(2,1) >= 1
cut_clique_6(9,1):  0.06717 x(0,1) + 0.03792 x(1,1) + 0.06764 x(2,1) >= 1
cut_clique_6(10,1):  0.06673 x(0,1) + 0.03807 x(1,1) + 0.06697 x(2,1) >= 1
cut_clique_6(11,1):  0.06673 x(0,1) + 0.03807 x(1,1) + 0.06898 x(2,1) >= 1
cut_clique_6(12,1):  0.06673 x(0,1) + 0.03807 x(1,1) + 0.06797 x(2,1) >= 1
cut_clique_6(13,1):  0.06853 x(0,1) + 0.03904 x(1,1) + 0.06637 x(2,1) >= 1
cut_clique_6(14,1):  0.06648 x(0,1) + 0.03904 x(1,1) + 0.06841 x(2,1) >= 1
cut_clique_6(15,1):  0.06831 x(0,1) + 0.03774 x(1,1) + 0.06810 x(2,1) >= 1
cut_clique_6(16,1):  0.06762 x(0,1) + 0.03774 x(1,1) + 0.06810 x(2,1) >= 1
cut_clique_6(17,1):  0.06829 x(0,1) + 0.03774 x(1,1) + 0.06810 x(2,1) >= 1
cut_clique_6(18,1):  0.06824 x(0,1) + 0.03774 x(1,1) + 0.06810 x(2,1) >= 1
cut_clique_6(19,1):  0.06744 x(0,1) + 0.03877 x(1,1) + 0.06768 x(2,1) >= 1
cut_clique_6(20,1):  0.06744 x(0,1) + 0.03838 x(1,1) + 0.06768 x(2,1) >= 1
cut_clique_6(21,1):  0.06811 x(0,1) + 0.03838 x(1,1) + 0.06768 x(2,1) >= 1
cut_clique_6(22,1):  0.06675 x(0,1) + 0.03915 x(1,1) + 0.06768 x(2,1) >= 1
cut_clique_6(23,1):  0.06675 x(0,1) + 0.03836 x(1,1) + 0.06768 x(2,1) >= 1
cut_clique_6(24,1):  0.06675 x(0,1) + 0.03836 x(1,1) + 0.06700 x(2,1) >= 1
cut_clique_6(25,1):  0.06858 x(0,1) + 0.03824 x(1,1) + 0.06658 x(2,1) >= 1
cut_clique_6(26,1):  0.06729 x(0,1) + 0.03969 x(1,1) + 0.06658 x(2,1) >= 1
cut_clique_6(27,1):  0.06761 x(0,1) + 0.03928 x(1,1) + 0.06658 x(2,1) >= 1
cut_clique_6(28,1):  0.06761 x(0,1) + 0.03889 x(1,1) + 0.06658 x(2,1) >= 1
cut_clique_6(29,1):  0.06761 x(0,1) + 0.03850 x(1,1) + 0.06658 x(2,1) >= 1
cut_clique_6(30,1):  0.06761 x(0,1) + 0.03850 x(1,1) + 0.06774 x(2,1) >= 1
cut_clique_6(31,1):  0.06656 x(0,1) + 0.03836 x(1,1) + 0.06719 x(2,1) >= 1
cut_clique_6(32,1):  0.06697 x(0,1) + 0.03982 x(1,1) + 0.06700 x(2,1) >= 1
cut_clique_6(33,1):  0.06719 x(0,1) + 0.03806 x(1,1) + 0.06689 x(2,1) >= 1
cut_clique_6(34,1):  0.06712 x(0,1) + 0.03887 x(1,1) + 0.06689 x(2,1) >= 1
Bounds
 0 <= C <= 44
 14 <= x(0,0) <= 43
 0 <= y(0,1,0) <= 1
 0 <= y(1,0,0) <= 1
 0 <= v(0,1,0)p <= 36
 0 <= v(0,1,0)n <= 23
 0 <= v(1,0,0)p <= 19
 0 <= v(1,0,0)n <= 40
 0 <= u(0,1,0)p <= 440
 0 <= u(0,1,0)n <= 440
 0 <= u(1,0,0)p <= 440
 0 <= u(1,0,0)n <= 440
 0 <= y(0,2,0) <= 1
 0 <= y(2,0,0) <= 1
 0 <= v(0,2,0)p <= 28
 0 <= v(0,2,0)n <= 30
 0 <= v(2,0,0)p <= 27
 0 <= v(2,0,0)n <= 31
 0 <= u(0,2,0)p <= 440
 0 <= u(0,2,0)n <= 440
 0 <= u(2,0,0)p <= 440
 0 <= u(2,0,0)n <= 440
 4 <= x(1,0) <= 34
 0 <= y(1,2,0) <= 1
 0 <= y(2,1,0) <= 1
 0 <= v(1,2,0)p <= 19
 0 <= v(1,2,0)n <= 40
 0 <= v(2,1,0)p <= 35
 0 <= v(2,1,0)n <= 24
 0 <= u(1,2,0)p <= 440
 0 <= u(1,2,0)n <= 440
 0 <= u(2,1,0)p <= 440
 0 <= u(2,1,0)n <= 440
 13 <= x(2,0) <= 42
 0 <= x(0,1) <= 29
 0 <= y(0,1,1) <= 1
 0 <= y(1,0,1) <= 1
 0 <= v(0,1,1)p <= 25
 0 <= v(0,1,1)n <= 34
 0 <= v(1,0,1)p <= 23
 0 <= v(1,0,1)n <= 36
 0 <= u(0,1,1)p <= 440
 0 <= u(0,1,1)n <= 440
 0 <= u(1,0,1)p <= 440
 0 <= u(1,0,1)n <= 440
 0 <= y(0,2,1) <= 1
 0 <= y(2,0,1) <= 1
 0 <= v(0,2,1)p <= 22
 0 <= v(0,2,1)n <= 36
 0 <= v(2,0,1)p <= 22
 0 <= v(2,0,1)n <= 36
 0 <= u(0,2,1)p <= 440
 0 <= u(0,2,1)n <= 440
 0 <= u(2,0,1)p <= 440
 0 <= u(2,0,1)n <= 440
 0 <= x(1,1) <= 30
 0 <= y(1,2,1) <= 1
 0 <= y(2,1,1) <= 1
 0 <= v(1,2,1)p <= 23
 0 <= v(1,2,1)n <= 36
 0 <= v(2,1,1)p <= 25
 0 <= v(2,1,1)n <= 34
 0 <= u(1,2,1)p <= 440
 0 <= u(1,2,1)n <= 440
 0 <= u(2,1,1)p <= 440
 0 <= u(2,1,1)n <= 440
 0 <= x(2,1) <= 29
 7 <= x(0,2) <= 36
 0 <= y(0,1,2) <= 1
 0 <= y(1,0,2) <= 1
 0 <= v(0,1,2)p <= 22
 0 <= v(0,1,2)n <= 37
 0 <= v(1,0,2)p <= 23
 0 <= v(1,0,2)n <= 36
 0 <= u(0,1,2)p <= 440
 0 <= u(0,1,2)n <= 440
 0 <= u(1,0,2)p <= 440
 0 <= u(1,0,2)n <= 440
 0 <= y(0,2,2) <= 1
 0 <= y(2,0,2) <= 1
 0 <= v(0,2,2)p <= 23
 0 <= v(0,2,2)n <= 35
 0 <= v(2,0,2)p <= 22
 0 <= v(2,0,2)n <= 36
 0 <= u(0,2,2)p <= 440
 0 <= u(0,2,2)n <= 440
 0 <= u(2,0,2)p <= 440
 0 <= u(2,0,2)n <= 440
 7 <= x(1,2) <= 37
 0 <= y(1,2,2) <= 1
 0 <= y(2,1,2) <= 1
 0 <= v(1,2,2)p <= 24
 0 <= v(1,2,2)n <= 35
 0 <= v(2,1,2)p <= 22
 0 <= v(2,1,2)n <= 37
 0 <= u(1,2,2)p <= 440
 0 <= u(1,2,2)n <= 440
 0 <= u(2,1,2)p <= 440
 0 <= u(2,1,2)n <= 440
 7 <= x(2,2) <= 36
End
